10364.0
1 1 1 1 1 1 1 1 1 1 
64 
79 90 91 92 93 95 
54 
8 12 21 23 24 51 56 57 58 73 74 76 81 82 85 86 89 96 98 
9 10 11 13 14 15 16 46 52 59 68 72 77 97 
33 47 48 49 50 55 61 62 63 65 66 75 83 84 88 94 
34 35 36 37 38 39 40 41 42 43 53 60 67 70 71 80 
0 1 2 3 4 5 6 7 44 45 69 78 87 99 
17 18 19 20 22 
25 26 27 28 29 30 31 32 
